Data path: /scratch/opt/lxu/CFLG/benchmarks/Kgroup_A
Instance: K100.1.red
Result path: /scratch/opt/lxu/CFLG/results/Kgroup_A
Solver: Gurobi
Time limit: 7200
Formulation: LEFPAI
Cover: Large
julia --project=. src/main.jl /scratch/opt/lxu/CFLG/benchmarks/Kgroup_A K100.1.red /scratch/opt/lxu/CFLG/results/Kgroup_A Gurobi 7200 LEFPAI Large
The latest version of Julia in the `release` channel is 1.11.5+0.x64.linux.gnu. You currently have `1.11.4+0.x64.linux.gnu` installed. Run:

  juliaup update

in your terminal shell to install Julia 1.11.5+0.x64.linux.gnu and update the `release` channel to that version.
/scratch/opt/lxu/CFLG/benchmarks/Kgroup_A Gurobi 7200.0 /scratch/opt/lxu/CFLG/results/Kgroup_A K100.1.red LEFPAI Large
/scratch/opt/lxu/CFLG/benchmarks/Kgroup_A/K100.1.red

 read graph
data loaded


after absorb:42 42

max_piece:4
problem_graph/original graph: node: 61/42 edge: 204/185 dlt: 0.40690855714659935 break_avg_len: 0.1845051055689238 break_max_len: 1.0Vbar/V, Ebar/E(61, 61, 204, 204)
(1, 32)(1, 24)(1, 11)(2, 35)(2, 5)(3, 12)(3, 4)(4, 38)(4, 14)(5, 32)(5, 35)(5, 20)(5, 8)(5, 24)(5, 11)(1, 8)(8, 11)(8, 15)(8, 24)(8, 27)(8, 32)(8, 35)(2, 9)(9, 35)(9, 15)(10, 26)(7, 10)(8, 12)(12, 15)(12, 17)(12, 23)(12, 35)(12, 36)(13, 15)(13, 38)(13, 35)(13, 36)(13, 17)(8, 13)(13, 23)(12, 13)(3, 14)(2, 14)(9, 14)(12, 14)(14, 15)(14, 38)(14, 35)(14, 37)(11, 15)(15, 24)(15, 35)(10, 16)(7, 16)(16, 21)(16, 26)(1, 17)(8, 17)(11, 17)(17, 24)(17, 27)(17, 35)(17, 36)(16, 18)(18, 26)(3, 18)(18, 29)(19, 43)(28, 43)(19, 37)(1, 20)(20, 32)(20, 27)(8, 20)(20, 24)(11, 20)(21, 26)(10, 21)(7, 21)(22, 44)(25, 44)(16, 22)(22, 29)(22, 45)(28, 45)(6, 46)(22, 46)(15, 23)(17, 23)(23, 36)(8, 23)(11, 23)(11, 24)(4, 25)(9, 47)(25, 47)(14, 48)(25, 48)(16, 25)(18, 25)(25, 29)(25, 40)(25, 41)(25, 37)(7, 26)(12, 49)(26, 49)(13, 50)(26, 50)(17, 51)(26, 51)(23, 26)(1, 27)(27, 32)(24, 27)(11, 27)(6, 28)(10, 29)(7, 29)(16, 29)(21, 29)(26, 29)(25, 30)(16, 30)(4, 30)(29, 30)(3, 30)(30, 40)(30, 41)(30, 52)(37, 52)(9, 53)(30, 53)(14, 54)(30, 54)(16, 31)(13, 55)(31, 55)(26, 31)(29, 31)(17, 56)(31, 56)(21, 31)(10, 31)(7, 31)(23, 31)(12, 57)(31, 57)(24, 32)(11, 32)(1, 33)(32, 33)(27, 33)(20, 33)(5, 33)(8, 33)(24, 33)(11, 33)(1, 34)(5, 34)(8, 34)(11, 34)(15, 34)(20, 34)(24, 34)(27, 34)(32, 34)(33, 34)(34, 36)(11, 35)(8, 36)(11, 36)(15, 36)(24, 36)(35, 36)(2, 37)(35, 37)(9, 37)(15, 38)(3, 38)(35, 38)(36, 38)(8, 38)(9, 38)(12, 38)(28, 39)(6, 39)(39, 40)(6, 40)(16, 41)(4, 41)(29, 41)(18, 41)(40, 41)(37, 58)(41, 58)(9, 59)(41, 59)(14, 60)(41, 60)(40, 42)(39, 42)(19, 61)(42, 61)(Dict{Int64, Float64}(), Int64[], 61, 204)Set parameter TokenServer to value "solice01.zib.de"
Set parameter Threads to value 1
Set parameter OutputFlag to value 1
Gurobi Optimizer version 12.0.1 build v12.0.1rc0 (linux64 - "Debian GNU/Linux 12 (bookworm)")

CPU model: Intel(R) Xeon(R) Gold 5222 CPU @ 3.80GHz, instruction set [SSE2|AVX|AVX2|AVX512]
Thread count: 8 physical cores, 16 logical processors, using up to 1 threads

Non-default parameters:
Threads  1

Optimize a model with 265 rows, 612 columns and 1020 nonzeros
Model fingerprint: 0xcdf73054
Coefficient statistics:
  Matrix range     [1e+00, 1e+00]
  Objective range  [1e+00, 1e+00]
  Bounds range     [1e+00, 1e+00]
  RHS range        [0e+00, 0e+00]
Presolve removed 265 rows and 612 columns
Presolve time: 0.01s
Presolve: All rows and columns removed
Iteration    Objective       Primal Inf.    Dual Inf.      Time
       0   -0.0000000e+00   0.000000e+00   0.000000e+00      0s

Solved in 0 iterations and 0.01 seconds (0.00 work units)
Optimal objective -0.000000000e+00

User-callback calls 35, time in user-callback 0.00 sec
elapsed CPU time: 1.24517 seconds
Set parameter TokenServer to value "solice01.zib.de"
Set parameter Threads to value 1
Set parameter OutputFlag to value 1
Set parameter MIPGap to value 0.0001
Set parameter MIPGapAbs to value 0.999998
Set parameter TimeLimit to value 7198.75483

 more cuts: false 0.40690855714659935 false
is_attach:trueformulation:LEFPAI0 204 0

 model loaded

Gurobi Optimizer version 12.0.1 build v12.0.1rc0 (linux64 - "Debian GNU/Linux 12 (bookworm)")

CPU model: Intel(R) Xeon(R) Gold 5222 CPU @ 3.80GHz, instruction set [SSE2|AVX|AVX2|AVX512]
Thread count: 8 physical cores, 16 logical processors, using up to 1 threads

Non-default parameters:
TimeLimit  7198.75483
MIPGapAbs  0.999998
Threads  1

Optimize a model with 10487 rows, 9355 columns and 30727 nonzeros
Model fingerprint: 0x5c994b46
Model has 8417 simple general constraints
  8417 INDICATOR
Variable types: 469 continuous, 8886 integer (8886 binary)
Coefficient statistics:
  Matrix range     [8e-04, 1e+00]
  Objective range  [1e+00, 1e+00]
  Bounds range     [8e-04, 1e+00]
  RHS range        [8e-04, 1e+00]
  GenCon rhs range [4e-07, 1e+00]
  GenCon coe range [1e+00, 1e+00]
Presolve added 4055 rows and 0 columns
Presolve removed 0 rows and 671 columns
Presolve time: 0.26s
Presolved: 14542 rows, 8684 columns, 49019 nonzeros
Variable types: 265 continuous, 8419 integer (8419 binary)
Found heuristic solution: objective 204.0000000
Found heuristic solution: objective 72.0000000

Root relaxation: objective 2.850575e+00, 4504 iterations, 0.16 seconds (0.27 work units)

    Nodes    |    Current Node    |     Objective Bounds      |     Work
 Expl Unexpl |  Obj  Depth IntInf | Incumbent    BestBd   Gap | It/Node Time

     0     0    2.85058    0  180   72.00000    2.85058  96.0%     -    0s
H    0     0                      66.0000000    2.85058  95.7%     -    0s
H    0     0                      24.0000000    2.85058  88.1%     -    0s
H    0     0                      19.0000000    2.85058  85.0%     -    0s
H    0     0                      18.0000000    2.85058  84.2%     -    0s
H    0     0                      17.0000000    2.85058  83.2%     -    0s
H    0     0                      16.0000000    2.85058  82.2%     -    0s
H    0     0                      15.0000000    2.85058  81.0%     -    0s
H    0     0                      13.0000000    2.85058  78.1%     -    0s
H    0     0                      12.0000000    2.85058  76.2%     -    1s
H    0     0                      11.0000000    2.85058  74.1%     -    1s
H    0     0                      10.0000000    2.85058  71.5%     -    1s
     0     0    3.56269    0  352   10.00000    3.56269  64.4%     -    1s
     0     0    3.82280    0  461   10.00000    3.82280  61.8%     -    2s
     0     0    3.82577    0  469   10.00000    3.82577  61.7%     -    2s
     0     0    3.82579    0  471   10.00000    3.82579  61.7%     -    2s
     0     0    4.37854    0  459   10.00000    4.37854  56.2%     -    2s
     0     0    4.38754    0  427   10.00000    4.38754  56.1%     -    2s
     0     0    4.38754    0  431   10.00000    4.38754  56.1%     -    2s
     0     0    5.15247    0  412   10.00000    5.15247  48.5%     -    3s
     0     0    5.21053    0  410   10.00000    5.21053  47.9%     -    3s
     0     0    5.21053    0  401   10.00000    5.21053  47.9%     -    3s
     0     0    5.21053    0  401   10.00000    5.21053  47.9%     -    3s
     0     0    5.34635    0  287   10.00000    5.34635  46.5%     -    3s
     0     0    5.37209    0  249   10.00000    5.37209  46.3%     -    3s
     0     0    5.37209    0  287   10.00000    5.37209  46.3%     -    3s
     0     0    5.37349    0  346   10.00000    5.37349  46.3%     -    3s
     0     0    5.38542    0  299   10.00000    5.38542  46.1%     -    3s
     0     0    5.38542    0  326   10.00000    5.38542  46.1%     -    4s
     0     0    5.38542    0  294   10.00000    5.38542  46.1%     -    4s
     0     0    5.38542    0  228   10.00000    5.38542  46.1%     -    4s
     0     0    5.39216    0  230   10.00000    5.39216  46.1%     -    4s
     0     0    5.39216    0  301   10.00000    5.39216  46.1%     -    4s
     0     0    5.39216    0  277   10.00000    5.39216  46.1%     -    4s
     0     0    5.39216    0  229   10.00000    5.39216  46.1%     -    4s
     0     0    5.39216    0  228   10.00000    5.39216  46.1%     -    5s
     0     2    5.40000    0  228   10.00000    5.40000  46.0%     -    5s
   246   219    7.45836   98   95   10.00000    5.50833  44.9%   153   10s
H  364   267                       9.0000000    5.50909  38.8%   137   11s
   561   430    7.82761  136  228    9.00000    5.54545  38.4%   135   23s
   563   431    7.35533   58  373    9.00000    5.54545  38.4%   134   25s
   568   435    7.26550   78  207    9.00000    5.54545  38.4%   133   31s
   573   438    6.00000   20  202    9.00000    5.66667  37.0%   132   35s
   578   441    6.00000   14  327    9.00000    5.66667  37.0%   131   40s
   587   447    8.00000   36  179    9.00000    5.83333  35.2%   129   45s
   591   450    7.00000   51  265    9.00000    6.00000  33.3%   128   50s
   595   453    6.00000   12  394    9.00000    6.00000  33.3%   127   55s
H  596   429                       8.0000000    6.00000  25.0%   127   65s
   632   449    6.58688   31  158    8.00000    6.00000  25.0%   530   70s
   705   450    6.35421   16  304    8.00000    6.01392  24.8%   522   75s
   765   465    6.06553   18  187    8.00000    6.03126  24.6%   524   80s
   846   461    6.77524   22  217    8.00000    6.03246  24.6%   509   85s
   941   454    6.10820   21  122    8.00000    6.07797  24.0%   486   90s
  1012   445    6.50489   16  310    8.00000    6.18661  22.7%   476   95s
  1100   430     cutoff   28         8.00000    6.33333  20.8%   457  100s
  1160   413    6.36656   19  299    8.00000    6.35421  20.6%   454  105s
  1220   397    7.00000   22  242    8.00000    6.44451  19.4%   443  110s
  1280   387    7.00000   26  239    8.00000    6.46989  19.1%   443  115s
  1354   367     cutoff   26         8.00000    6.50194  18.7%   439  120s
  1427   331     cutoff   31         8.00000    6.60243  17.5%   432  125s
  1532   285    7.00000   20  271    8.00000    6.96692  12.9%   421  130s
  1663   192    7.00000   26  102    8.00000    7.00000  12.5%   405  135s
  1790   144    7.00000   39  141    8.00000    7.00000  12.5%   402  140s
  1892    97    7.00000   31  148    8.00000    7.00000  12.5%   399  145s
  1982    92    7.00000   23  174    8.00000    7.00000  12.5%   400  150s
  2079    83     cutoff   26         8.00000    7.00000  12.5%   404  155s
  2197    84    7.00000   26   97    8.00000    7.00000  12.5%   401  160s
  2286    83    7.00000   31   90    8.00000    7.00000  12.5%   407  165s
  2406    73     cutoff   36         8.00000    7.00000  12.5%   404  170s
  2484    42    7.00000   23  327    8.00000    7.00000  12.5%   411  175s
  2548    34    7.00000   27  143    8.00000    7.00000  12.5%   416  180s
  2667    53    7.00000   40  151    8.00000    7.00000  12.5%   416  185s
  2757    54    7.00000   36  253    8.00000    7.00000  12.5%   422  190s
  2881    59    7.00000   38   93    8.00000    7.00000  12.5%   418  195s
  2936    59    7.00000   36  191    8.00000    7.00000  12.5%   420  200s
  3032    44     cutoff   32         8.00000    7.00000  12.5%   422  205s
  3129    33     cutoff   32         8.00000    7.00000  12.5%   423  210s
  3148    24     cutoff   20         8.00000    7.00000  12.5%   426  215s
  3245    13    7.00000   29  175    8.00000    7.00000  12.5%   424  220s
  3385     9     cutoff   32         8.00000    7.00000  12.5%   420  225s
  3473     1     cutoff   21         8.00000    7.00000  12.5%   417  230s

Cutting planes:
  Learned: 3
  Gomory: 2
  Lift-and-project: 1
  Cover: 77
  Implied bound: 13
  Clique: 1
  MIR: 102
  StrongCG: 13
  Flow cover: 311
  GUB cover: 29
  Zero half: 17
  RLT: 10
  Relax-and-lift: 4
  BQP: 2
  PSD: 2

Explored 3475 nodes (1487115 simplex iterations) in 230.27 seconds (313.91 work units)
Thread count was 1 (of 16 available processors)

Solution count 10: 8 9 9 ... 15

Optimal solution found (tolerance 1.00e-04)
Best objective 8.000000000000e+00, best bound 8.000000000000e+00, gap 0.0000%

User-callback calls 42663, time in user-callback 0.05 sec

 sepatime0 0 0
8.0Stat(MathOptInterface.OPTIMAL, 8.0, 8.0, 0.0, 0.0, 1.24517, 230.26622819900513, 3475, Main.CFLG.LEFPAI, "", #undef)
